u120_16
150 120 52 56
25 0
54 0
47 0
58 1
50 1
87 2
90 3
45 2
71 4
70 4
38 1
49 3
42 5
33 5
78 6
48 5
94 7
99 8
100 9
84 10
91 11
27 6
69 12
52 7
64 10
99 13
30 6
34 8
55 11
96 14
92 15
48 9
88 16
76 12
38 13
73 17
90 18
99 19
45 14
84 20
94 21
82 22
28 15
35 16
94 23
100 24
44 17
23 0
58 18
23 5
35 19
84 25
75 26
30 17
58 20
61 22
61 25
100 27
63 26
99 28
85 29
60 29
78 30
56 30
76 31
61 31
59 32
93 33
83 32
84 34
89 35
59 34
75 36
32 21
21 15
62 36
27 23
64 37
44 24
83 37
68 38
90 39
38 27
98 40
44 28
66 38
76 41
67 41
65 42
81 42
95 43
62 44
34 33
33 35
56 39
75 44
40 40
72 45
49 43
95 46
59 45
40 46
53 47
27 23
70 47
27 35
72 48
92 49
79 50
66 48
92 51
47 49
87 52
32 50
51 51
94 53
22 16
79 54
75 55
70 54